p cnf 386 460
-11 9 12 21 22 0
-11 9 12 21 -22 0
-11 9 12 -21 23 0
-11 9 12 -21 -23 0
-7 -17 -18 24 25 0
-7 -17 -18 24 -25 0
-7 -17 -18 -24 26 0
-7 -17 -18 -24 -26 0
-13 -17 20 27 28 0
-13 -17 20 27 -28 0
-13 -17 20 -27 29 0
-13 -17 20 -27 -29 0
-4 -16 12 30 31 0
-4 -16 12 30 -31 0
-4 -16 12 -30 32 0
-4 -16 12 -30 -32 0
8 2 14 33 34 0
8 2 14 33 -34 0
8 2 14 -33 35 0
8 2 14 -33 -35 0
-9 -19 14 36 37 0
-9 -19 14 36 -37 0
-9 -19 14 -36 38 0
-9 -19 14 -36 -38 0
7 4 18 39 40 0
7 4 18 39 -40 0
7 4 18 -39 41 0
7 4 18 -39 -41 0
-19 -16 5 42 43 0
-19 -16 5 42 -43 0
-19 -16 5 -42 44 0
-19 -16 5 -42 -44 0
-1 -16 17 45 46 0
-1 -16 17 45 -46 0
-1 -16 17 -45 47 0
-1 -16 17 -45 -47 0
-2 20 -11 48 49 0
-2 20 -11 48 -49 0
-2 20 -11 -48 50 0
-2 20 -11 -48 -50 0
-20 9 -17 51 52 0
-20 9 -17 51 -52 0
-20 9 -17 -51 53 0
-20 9 -17 -51 -53 0
-14 -15 -17 54 55 0
-14 -15 -17 54 -55 0
-14 -15 -17 -54 56 0
-14 -15 -17 -54 -56 0
19 -18 15 57 58 0
19 -18 15 57 -58 0
19 -18 15 -57 59 0
19 -18 15 -57 -59 0
6 15 -2 60 61 0
6 15 -2 60 -61 0
6 15 -2 -60 62 0
6 15 -2 -60 -62 0
12 8 -14 63 64 0
12 8 -14 63 -64 0
12 8 -14 -63 65 0
12 8 -14 -63 -65 0
-1 -2 -3 66 67 0
-1 -2 -3 66 -67 0
-1 -2 -3 -66 68 0
-1 -2 -3 -66 -68 0
11 -8 5 69 70 0
11 -8 5 69 -70 0
11 -8 5 -69 71 0
11 -8 5 -69 -71 0
6 18 -1 72 73 0
6 18 -1 72 -73 0
6 18 -1 -72 74 0
6 18 -1 -72 -74 0
7 -11 8 75 76 0
7 -11 8 75 -76 0
7 -11 8 -75 77 0
7 -11 8 -75 -77 0
1 5 15 78 79 0
1 5 15 78 -79 0
1 5 15 -78 80 0
1 5 15 -78 -80 0
4 10 12 81 82 0
4 10 12 81 -82 0
4 10 12 -81 83 0
4 10 12 -81 -83 0
11 6 18 84 85 0
11 6 18 84 -85 0
11 6 18 -84 86 0
11 6 18 -84 -86 0
7 10 3 87 88 0
7 10 3 87 -88 0
7 10 3 -87 89 0
7 10 3 -87 -89 0
14 -16 -17 90 91 0
14 -16 -17 90 -91 0
14 -16 -17 -90 92 0
14 -16 -17 -90 -92 0
4 18 13 93 94 0
4 18 13 93 -94 0
4 18 13 -93 95 0
4 18 13 -93 -95 0
-11 -15 -13 96 97 0
-11 -15 -13 96 -97 0
-11 -15 -13 -96 98 0
-11 -15 -13 -96 -98 0
-2 -9 20 99 100 0
-2 -9 20 99 -100 0
-2 -9 20 -99 101 0
-2 -9 20 -99 -101 0
2 -5 19 102 103 0
2 -5 19 102 -103 0
2 -5 19 -102 104 0
2 -5 19 -102 -104 0
14 6 -19 105 106 0
14 6 -19 105 -106 0
14 6 -19 -105 107 0
14 6 -19 -105 -107 0
-8 -13 20 108 109 0
-8 -13 20 108 -109 0
-8 -13 20 -108 110 0
-8 -13 20 -108 -110 0
-9 8 13 111 112 0
-9 8 13 111 -112 0
-9 8 13 -111 113 0
-9 8 13 -111 -113 0
2 -14 -7 114 115 0
2 -14 -7 114 -115 0
2 -14 -7 -114 116 0
2 -14 -7 -114 -116 0
3 16 -15 117 118 0
3 16 -15 117 -118 0
3 16 -15 -117 119 0
3 16 -15 -117 -119 0
-2 13 17 120 121 0
-2 13 17 120 -121 0
-2 13 17 -120 122 0
-2 13 17 -120 -122 0
-18 -13 16 123 124 0
-18 -13 16 123 -124 0
-18 -13 16 -123 125 0
-18 -13 16 -123 -125 0
-18 1 -16 126 127 0
-18 1 -16 126 -127 0
-18 1 -16 -126 128 0
-18 1 -16 -126 -128 0
18 2 14 129 130 0
18 2 14 129 -130 0
18 2 14 -129 131 0
18 2 14 -129 -131 0
-20 6 -14 132 133 0
-20 6 -14 132 -133 0
-20 6 -14 -132 134 0
-20 6 -14 -132 -134 0
15 -19 -8 135 136 0
15 -19 -8 135 -136 0
15 -19 -8 -135 137 0
15 -19 -8 -135 -137 0
4 12 -11 138 139 0
4 12 -11 138 -139 0
4 12 -11 -138 140 0
4 12 -11 -138 -140 0
19 3 -14 141 142 0
19 3 -14 141 -142 0
19 3 -14 -141 143 0
19 3 -14 -141 -143 0
6 5 -7 144 145 0
6 5 -7 144 -145 0
6 5 -7 -144 146 0
6 5 -7 -144 -146 0
10 13 -11 147 148 0
10 13 -11 147 -148 0
10 13 -11 -147 149 0
10 13 -11 -147 -149 0
15 -1 -3 150 151 0
15 -1 -3 150 -151 0
15 -1 -3 -150 152 0
15 -1 -3 -150 -152 0
9 6 10 153 154 0
9 6 10 153 -154 0
9 6 10 -153 155 0
9 6 10 -153 -155 0
-11 -1 16 156 157 0
-11 -1 16 156 -157 0
-11 -1 16 -156 158 0
-11 -1 16 -156 -158 0
18 -1 12 159 160 0
18 -1 12 159 -160 0
18 -1 12 -159 161 0
18 -1 12 -159 -161 0
18 -2 -4 162 163 0
18 -2 -4 162 -163 0
18 -2 -4 -162 164 0
18 -2 -4 -162 -164 0
5 13 -20 165 166 0
5 13 -20 165 -166 0
5 13 -20 -165 167 0
5 13 -20 -165 -167 0
19 -12 -6 168 169 0
19 -12 -6 168 -169 0
19 -12 -6 -168 170 0
19 -12 -6 -168 -170 0
15 11 13 171 172 0
15 11 13 171 -172 0
15 11 13 -171 173 0
15 11 13 -171 -173 0
12 2 -7 174 175 0
12 2 -7 174 -175 0
12 2 -7 -174 176 0
12 2 -7 -174 -176 0
3 5 -19 177 178 0
3 5 -19 177 -178 0
3 5 -19 -177 179 0
3 5 -19 -177 -179 0
3 13 -10 180 181 0
3 13 -10 180 -181 0
3 13 -10 -180 182 0
3 13 -10 -180 -182 0
1 8 -6 183 184 0
1 8 -6 183 -184 0
1 8 -6 -183 185 0
1 8 -6 -183 -185 0
-2 18 -11 186 187 0
-2 18 -11 186 -187 0
-2 18 -11 -186 188 0
-2 18 -11 -186 -188 0
-3 6 -9 189 190 0
-3 6 -9 189 -190 0
-3 6 -9 -189 191 0
-3 6 -9 -189 -191 0
-18 -14 -3 192 193 0
-18 -14 -3 192 -193 0
-18 -14 -3 -192 194 0
-18 -14 -3 -192 -194 0
-4 -19 -17 195 196 0
-4 -19 -17 195 -196 0
-4 -19 -17 -195 197 0
-4 -19 -17 -195 -197 0
7 5 -14 198 199 0
7 5 -14 198 -199 0
7 5 -14 -198 200 0
7 5 -14 -198 -200 0
13 19 -12 201 202 0
13 19 -12 201 -202 0
13 19 -12 -201 203 0
13 19 -12 -201 -203 0
-12 -7 -3 204 205 0
-12 -7 -3 204 -205 0
-12 -7 -3 -204 206 0
-12 -7 -3 -204 -206 0
9 7 -19 207 208 0
9 7 -19 207 -208 0
9 7 -19 -207 209 0
9 7 -19 -207 -209 0
6 2 10 210 211 0
6 2 10 210 -211 0
6 2 10 -210 212 0
6 2 10 -210 -212 0
11 6 -12 213 214 0
11 6 -12 213 -214 0
11 6 -12 -213 215 0
11 6 -12 -213 -215 0
15 1 -17 216 217 0
15 1 -17 216 -217 0
15 1 -17 -216 218 0
15 1 -17 -216 -218 0
20 -1 -4 219 220 0
20 -1 -4 219 -220 0
20 -1 -4 -219 221 0
20 -1 -4 -219 -221 0
-18 1 5 222 223 0
-18 1 5 222 -223 0
-18 1 5 -222 224 0
-18 1 5 -222 -224 0
9 18 14 225 226 0
9 18 14 225 -226 0
9 18 14 -225 227 0
9 18 14 -225 -227 0
15 -17 9 228 229 0
15 -17 9 228 -229 0
15 -17 9 -228 230 0
15 -17 9 -228 -230 0
-3 11 9 231 232 0
-3 11 9 231 -232 0
-3 11 9 -231 233 0
-3 11 9 -231 -233 0
14 12 9 234 235 0
14 12 9 234 -235 0
14 12 9 -234 236 0
14 12 9 -234 -236 0
5 14 2 237 238 0
5 14 2 237 -238 0
5 14 2 -237 239 0
5 14 2 -237 -239 0
17 -10 -8 240 241 0
17 -10 -8 240 -241 0
17 -10 -8 -240 242 0
17 -10 -8 -240 -242 0
14 -15 9 243 244 0
14 -15 9 243 -244 0
14 -15 9 -243 245 0
14 -15 9 -243 -245 0
-6 -20 13 246 247 0
-6 -20 13 246 -247 0
-6 -20 13 -246 248 0
-6 -20 13 -246 -248 0
1 6 13 249 250 0
1 6 13 249 -250 0
1 6 13 -249 251 0
1 6 13 -249 -251 0
-16 15 -17 252 253 0
-16 15 -17 252 -253 0
-16 15 -17 -252 254 0
-16 15 -17 -252 -254 0
-8 19 7 255 256 0
-8 19 7 255 -256 0
-8 19 7 -255 257 0
-8 19 7 -255 -257 0
-7 3 -1 258 259 0
-7 3 -1 258 -259 0
-7 3 -1 -258 260 0
-7 3 -1 -258 -260 0
-18 10 17 261 262 0
-18 10 17 261 -262 0
-18 10 17 -261 263 0
-18 10 17 -261 -263 0
12 -4 14 264 265 0
12 -4 14 264 -265 0
12 -4 14 -264 266 0
12 -4 14 -264 -266 0
7 10 19 267 268 0
7 10 19 267 -268 0
7 10 19 -267 269 0
7 10 19 -267 -269 0
20 15 19 270 271 0
20 15 19 270 -271 0
20 15 19 -270 272 0
20 15 19 -270 -272 0
-13 -17 -9 273 274 0
-13 -17 -9 273 -274 0
-13 -17 -9 -273 275 0
-13 -17 -9 -273 -275 0
10 -9 3 276 277 0
10 -9 3 276 -277 0
10 -9 3 -276 278 0
10 -9 3 -276 -278 0
15 -11 10 279 280 0
15 -11 10 279 -280 0
15 -11 10 -279 281 0
15 -11 10 -279 -281 0
12 1 -13 282 283 0
12 1 -13 282 -283 0
12 1 -13 -282 284 0
12 1 -13 -282 -284 0
11 3 15 285 286 0
11 3 15 285 -286 0
11 3 15 -285 287 0
11 3 15 -285 -287 0
16 -2 -1 288 289 0
16 -2 -1 288 -289 0
16 -2 -1 -288 290 0
16 -2 -1 -288 -290 0
-17 -5 -1 291 292 0
-17 -5 -1 291 -292 0
-17 -5 -1 -291 293 0
-17 -5 -1 -291 -293 0
294 295 297 301 309 0
294 295 297 301 -309 0
294 295 297 -301 310 0
294 295 297 -301 -310 0
294 295 -297 302 311 0
294 295 -297 302 -311 0
294 295 -297 -302 312 0
294 295 -297 -302 -312 0
294 -295 298 303 313 0
294 -295 298 303 -313 0
294 -295 298 -303 314 0
294 -295 298 -303 -314 0
294 -295 -298 304 315 0
294 -295 -298 304 -315 0
294 -295 -298 -304 316 0
294 -295 -298 -304 -316 0
-294 296 299 305 317 0
-294 296 299 305 -317 0
-294 296 299 -305 318 0
-294 296 299 -305 -318 0
-294 296 -299 306 319 0
-294 296 -299 306 -319 0
-294 296 -299 -306 320 0
-294 296 -299 -306 -320 0
-294 -296 300 307 321 0
-294 -296 300 307 -321 0
-294 -296 300 -307 322 0
-294 -296 300 -307 -322 0
-294 -296 -300 308 323 0
-294 -296 -300 308 -323 0
-294 -296 -300 -308 324 0
-294 -296 -300 -308 -324 0
325 326 328 332 340 0
325 326 328 332 -340 0
325 326 328 -332 341 0
325 326 328 -332 -341 0
325 326 -328 333 342 0
325 326 -328 333 -342 0
325 326 -328 -333 343 0
325 326 -328 -333 -343 0
325 -326 329 334 344 0
325 -326 329 334 -344 0
325 -326 329 -334 345 0
325 -326 329 -334 -345 0
325 -326 -329 335 346 0
325 -326 -329 335 -346 0
325 -326 -329 -335 347 0
325 -326 -329 -335 -347 0
-325 327 330 336 348 0
-325 327 330 336 -348 0
-325 327 330 -336 349 0
-325 327 330 -336 -349 0
-325 327 -330 337 350 0
-325 327 -330 337 -350 0
-325 327 -330 -337 351 0
-325 327 -330 -337 -351 0
-325 -327 331 338 352 0
-325 -327 331 338 -352 0
-325 -327 331 -338 353 0
-325 -327 331 -338 -353 0
-325 -327 -331 339 354 0
-325 -327 -331 339 -354 0
-325 -327 -331 -339 355 0
-325 -327 -331 -339 -355 0
356 357 359 363 371 0
356 357 359 363 -371 0
356 357 359 -363 372 0
356 357 359 -363 -372 0
356 357 -359 364 373 0
356 357 -359 364 -373 0
356 357 -359 -364 374 0
356 357 -359 -364 -374 0
356 -357 360 365 375 0
356 -357 360 365 -375 0
356 -357 360 -365 376 0
356 -357 360 -365 -376 0
356 -357 -360 366 377 0
356 -357 -360 366 -377 0
356 -357 -360 -366 378 0
356 -357 -360 -366 -378 0
-356 358 361 367 379 0
-356 358 361 367 -379 0
-356 358 361 -367 380 0
-356 358 361 -367 -380 0
-356 358 -361 368 381 0
-356 358 -361 368 -381 0
-356 358 -361 -368 382 0
-356 358 -361 -368 -382 0
-356 -358 362 369 383 0
-356 -358 362 369 -383 0
-356 -358 362 -369 384 0
-356 -358 362 -369 -384 0
-356 -358 -362 370 385 0
-356 -358 -362 370 -385 0
-356 -358 -362 -370 386 0
-356 -358 -362 -370 -386 0

